INCAR created by Atomic Simulation Environment
 KSPACING = 0.150000
 EDIFF = 1.00e-08
 EDIFFG = -1.00e-08
 GGA = PE
 PREC = accurate
 IBRION = 2
 ISIF = 3
 NPAR = 8
 NSW = 20
 ADDGRID = .TRUE.
 KGAMMA = .TRUE.
 LCHARG = .FALSE.
 LWAVE = .FALSE.
 LREAL = .FALSE.
