Si 
 1.0000000000000000
     5.4650042464262549    0.0000000000000000    0.0000000000000003
     0.0000000000000009    5.4650042464262549    0.0000000000000003
     0.0000000000000000    0.0000000000000000    5.4650042464262549
 Si 
   8
Direct
  0.4999999999999999  0.0000000000000000  0.0000000000000000
  0.2500000000000000  0.2500000000000000  0.7500000000000000
  0.4999999999999999  0.4999999999999999  0.4999999999999999
  0.2500000000000000  0.7500000000000000  0.2500000000000000
  0.0000000000000000  0.0000000000000000  0.4999999999999999
  0.7500000000000000  0.2500000000000000  0.2500000000000000
  0.0000000000000000  0.4999999999999999  0.0000000000000000
  0.7500000000000000  0.7500000000000000  0.7499999999999998
